;; lemma to synthesize
;; TODO: must be generated from problem parameters

(synth-fun lemma ((x Int) (y Int) (z Int) (nil Int)) Bool

           ((Start Bool) (I Int))

           ((Start Bool
                  ((=> Start Start)
                   (lseg I I)
                   ))
            (I Int (x y z
                   )))

)

(synth-fun rswitch () Int

           ((Start Int))

           ((Start Int (0 1)))

)
